c description: Random 3-CNF over 16 variables and 32 clauses
p cnf 16 32
-1 -6 -12 0
-3 -4 6 0
-2 3 -6 0
-7 -9 14 0
8 -11 -14 0
-6 -9 -12 0
-4 -5 -8 0
1 -5 -12 0
-1 -6 -15 0
-5 -10 -15 0
-1 2 9 0
2 -5 -15 0
5 -9 15 0
1 10 14 0
-1 3 8 0
2 6 12 0
-4 7 15 0
-4 -5 -7 0
10 11 -13 0
-5 -8 -11 0
-3 11 13 0
4 9 12 0
9 -13 -15 0
-8 -12 14 0
-1 5 11 0
-3 9 -16 0
-1 8 14 0
4 7 11 0
-2 5 -8 0
1 -4 -5 0
4 -6 -8 0
-1 -13 -16 0